c t wmc
c file mc2023_track2_114.cnf
p cnf 90 270
7 -15 -1 0
-4 -53 79 0
-62 34 41 0
-54 46 7 0
87 -86 -8 0
-8 84 48 0
-50 -49 22 0
13 -72 -85 0
12 14 72 0
6 -50 -61 0
82 -89 38 0
30 -52 -18 0
14 -84 -63 0
-4 -15 77 0
-42 -12 -36 0
-3 -54 -2 0
-67 -10 -46 0
-11 -2 -47 0
34 -50 -46 0
-84 40 37 0
-87 7 -34 0
-51 -21 13 0
-52 -18 -83 0
7 26 41 0
-54 -2 -89 0
-68 31 65 0
57 -18 48 0
40 -11 -45 0
60 48 -72 0
-49 38 -74 0
-37 41 -30 0
72 -58 63 0
-46 -17 -60 0
-38 -66 -78 0
7 44 71 0
70 24 -60 0
41 -83 20 0
49 34 -44 0
-70 31 27 0
29 30 -46 0
-18 -53 -65 0
7 -36 -56 0
90 1 -37 0
63 62 15 0
42 -80 41 0
-81 19 -50 0
-50 43 -34 0
-70 57 -18 0
77 58 -37 0
34 35 29 0
-75 38 79 0
79 46 70 0
39 -7 -51 0
-53 49 -51 0
87 23 14 0
-11 -50 -31 0
-31 -43 74 0
29 57 -69 0
-64 55 84 0
-65 31 -39 0
55 53 -51 0
-58 61 70 0
42 -60 -86 0
42 56 15 0
-11 -42 -22 0
-29 34 79 0
-36 -84 -40 0
39 2 48 0
-53 -45 -73 0
5 14 -34 0
76 67 -3 0
-30 -75 35 0
20 35 -15 0
-21 -60 62 0
-56 33 32 0
74 -45 56 0
-2 55 -36 0
5 15 -44 0
55 -18 73 0
-72 33 -29 0
-46 -12 1 0
76 -65 72 0
-63 -37 -9 0
42 48 -68 0
-6 -67 30 0
-65 62 -39 0
-69 -13 10 0
35 48 25 0
-33 -17 -54 0
-75 82 -64 0
-83 -73 -30 0
47 -65 -11 0
-41 -12 39 0
5 44 -3 0
-49 -8 -19 0
38 -13 -23 0
-83 -58 42 0
63 26 46 0
39 -3 -56 0
-89 -45 -46 0
7 64 -77 0
5 -26 31 0
-2 -12 -47 0
-63 -73 -77 0
58 42 -17 0
5 -12 67 0
-57 -19 -12 0
-63 -84 10 0
-64 -21 -83 0
71 -75 -69 0
-55 45 80 0
53 -51 36 0
-27 80 33 0
6 59 -18 0
-18 -12 -77 0
-17 15 -67 0
39 -32 -79 0
10 -19 -84 0
33 57 50 0
-83 31 -30 0
-31 -17 33 0
75 41 -19 0
27 -39 -22 0
-46 75 -13 0
51 26 -49 0
31 -52 -69 0
4 38 29 0
16 -72 6 0
-50 -13 64 0
4 15 -73 0
3 1 30 0
31 56 51 0
10 42 28 0
76 88 26 0
41 -51 -46 0
5 84 -51 0
-9 -72 53 0
76 -50 89 0
21 -34 80 0
5 -40 29 0
-61 68 -8 0
-29 56 69 0
-88 18 -32 0
-56 71 54 0
19 -42 -44 0
-47 49 -64 0
-4 -13 -35 0
-22 35 79 0
-32 76 50 0
86 -65 41 0
59 16 -58 0
81 -69 32 0
-49 19 10 0
-75 48 42 0
-77 -90 89 0
-12 22 -66 0
10 46 -64 0
-31 90 51 0
33 -28 5 0
-38 -73 -15 0
49 -72 18 0
-37 -40 56 0
4 26 82 0
-22 86 -13 0
16 59 39 0
35 -38 -64 0
52 71 -41 0
-77 83 56 0
-53 9 -89 0
-47 45 39 0
-50 -68 54 0
-75 64 -4 0
-67 57 -58 0
-86 67 -8 0
-19 -88 -66 0
47 58 38 0
-25 38 -83 0
14 54 -24 0
-12 -67 20 0
-15 1 4 0
-8 -16 88 0
-88 -60 62 0
-17 -45 66 0
-47 -32 -26 0
-52 -66 70 0
-63 -32 -18 0
71 25 4 0
-86 75 -50 0
76 22 -48 0
-82 -86 67 0
85 -80 -20 0
80 24 -76 0
-21 55 9 0
32 16 -61 0
-17 69 -26 0
-63 4 -49 0
-22 16 18 0
-84 16 -6 0
-52 7 -13 0
-69 46 -15 0
30 20 -61 0
-77 48 -88 0
-18 -85 -14 0
-65 62 9 0
62 -9 43 0
-47 45 -66 0
-47 31 -49 0
-29 37 74 0
-47 23 87 0
16 -27 -8 0
-11 -46 14 0
81 -79 -86 0
22 -65 7 0
27 -45 -15 0
-57 -77 4 0
-82 18 -84 0
-64 -18 -62 0
-77 17 49 0
-18 19 -86 0
-44 24 10 0
-66 5 40 0
-78 -3 82 0
-65 -74 25 0
-85 79 10 0
32 22 -86 0
42 69 -90 0
4 23 -11 0
-43 -10 -29 0
27 -53 88 0
-73 30 34 0
-69 -77 40 0
-45 40 50 0
-45 -12 -88 0
-11 -81 -86 0
-47 20 5 0
39 -16 -63 0
-30 59 55 0
58 49 -17 0
-80 -65 59 0
-81 60 -89 0
-17 -2 85 0
-3 81 44 0
60 90 40 0
-32 -51 -89 0
-69 -35 -19 0
-80 -50 -87 0
42 -73 -64 0
70 16 -5 0
-61 -39 63 0
5 -61 36 0
-43 -87 33 0
58 -56 -3 0
77 -20 -17 0
82 -55 -75 0
42 -44 -8 0
85 -59 -79 0
-61 38 -12 0
87 -82 58 0
-3 -33 81 0
-78 -75 -55 0
57 15 -69 0
-50 -29 -30 0
84 -31 -5 0
-26 4 63 0
-81 -35 7 0
45 -77 18 0
71 -13 -78 0
-24 84 -67 0
-89 -57 25 0
-4 42 -37 0
c p weight 17 0.61526463 0
c p weight -17 0.38473537 0
c p weight 45 0.52878507 0
c p weight -45 0.47121493 0
c p weight 1 1 0
c p weight -1 1 0
c p weight 2 1 0
c p weight -2 1 0
c p weight 3 1 0
c p weight -3 1 0
c p weight 4 1 0
c p weight -4 1 0
c p weight 5 1 0
c p weight -5 1 0
c p weight 6 1 0
c p weight -6 1 0
c p weight 7 1 0
c p weight -7 1 0
c p weight 8 1 0
c p weight -8 1 0
c p weight 9 1 0
c p weight -9 1 0
c p weight 10 1 0
c p weight -10 1 0
c p weight 11 1 0
c p weight -11 1 0
c p weight 12 1 0
c p weight -12 1 0
c p weight 13 1 0
c p weight -13 1 0
c p weight 14 1 0
c p weight -14 1 0
c p weight 15 1 0
c p weight -15 1 0
c p weight 16 1 0
c p weight -16 1 0
c p weight 18 1 0
c p weight -18 1 0
c p weight 19 1 0
c p weight -19 1 0
c p weight 20 1 0
c p weight -20 1 0
c p weight 21 1 0
c p weight -21 1 0
c p weight 22 1 0
c p weight -22 1 0
c p weight 23 1 0
c p weight -23 1 0
c p weight 24 1 0
c p weight -24 1 0
c p weight 25 1 0
c p weight -25 1 0
c p weight 26 1 0
c p weight -26 1 0
c p weight 27 1 0
c p weight -27 1 0
c p weight 28 1 0
c p weight -28 1 0
c p weight 29 1 0
c p weight -29 1 0
c p weight 30 1 0
c p weight -30 1 0
c p weight 31 1 0
c p weight -31 1 0
c p weight 32 1 0
c p weight -32 1 0
c p weight 33 1 0
c p weight -33 1 0
c p weight 34 1 0
c p weight -34 1 0
c p weight 35 1 0
c p weight -35 1 0
c p weight 36 1 0
c p weight -36 1 0
c p weight 37 1 0
c p weight -37 1 0
c p weight 38 1 0
c p weight -38 1 0
c p weight 39 1 0
c p weight -39 1 0
c p weight 40 1 0
c p weight -40 1 0
c p weight 41 1 0
c p weight -41 1 0
c p weight 42 1 0
c p weight -42 1 0
c p weight 43 1 0
c p weight -43 1 0
c p weight 44 1 0
c p weight -44 1 0
c p weight 46 1 0
c p weight -46 1 0
c p weight 47 1 0
c p weight -47 1 0
c p weight 48 1 0
c p weight -48 1 0
c p weight 49 1 0
c p weight -49 1 0
c p weight 50 1 0
c p weight -50 1 0
c p weight 51 1 0
c p weight -51 1 0
c p weight 52 1 0
c p weight -52 1 0
c p weight 53 1 0
c p weight -53 1 0
c p weight 54 1 0
c p weight -54 1 0
c p weight 55 1 0
c p weight -55 1 0
c p weight 56 1 0
c p weight -56 1 0
c p weight 57 1 0
c p weight -57 1 0
c p weight 58 1 0
c p weight -58 1 0
c p weight 59 1 0
c p weight -59 1 0
c p weight 60 1 0
c p weight -60 1 0
c p weight 61 1 0
c p weight -61 1 0
c p weight 62 1 0
c p weight -62 1 0
c p weight 63 1 0
c p weight -63 1 0
c p weight 64 1 0
c p weight -64 1 0
c p weight 65 1 0
c p weight -65 1 0
c p weight 66 1 0
c p weight -66 1 0
c p weight 67 1 0
c p weight -67 1 0
c p weight 68 1 0
c p weight -68 1 0
c p weight 69 1 0
c p weight -69 1 0
c p weight 70 1 0
c p weight -70 1 0
c p weight 71 1 0
c p weight -71 1 0
c p weight 72 1 0
c p weight -72 1 0
c p weight 73 1 0
c p weight -73 1 0
c p weight 74 1 0
c p weight -74 1 0
c p weight 75 1 0
c p weight -75 1 0
c p weight 76 1 0
c p weight -76 1 0
c p weight 77 1 0
c p weight -77 1 0
c p weight 78 1 0
c p weight -78 1 0
c p weight 79 1 0
c p weight -79 1 0
c p weight 80 1 0
c p weight -80 1 0
c p weight 81 1 0
c p weight -81 1 0
c p weight 82 1 0
c p weight -82 1 0
c p weight 83 1 0
c p weight -83 1 0
c p weight 84 1 0
c p weight -84 1 0
c p weight 85 1 0
c p weight -85 1 0
c p weight 86 1 0
c p weight -86 1 0
c p weight 87 1 0
c p weight -87 1 0
c p weight 88 1 0
c p weight -88 1 0
c p weight 89 1 0
c p weight -89 1 0
c p weight 90 1 0
c p weight -90 1 0
